15	3	2
4021	4021	4021	
596	78	84	
452	808	846	
523	276	297	
786	66	66	
245	733	744	
192	969	1018	
331	661	666	
936	905	918	
773	742	760	
562	850	855	
491	628	658	
994	764	773	
91	284	308	
373	153	160	
58	125	125	
